results_rootrelaxation/bin018_070_004.srr.sol
solution status: optimal solution found
objective value:                                    4
_var2773_                           0.115714136335129 	(obj:2)
_var2850_                            0.24888008912779 	(obj:1)
_var2872_                          0.0982497491296043 	(obj:0)
_var2946_                           0.056971965858578 	(obj:0)
_var2964_                          0.0682490303504709 	(obj:1)
_var2978_                           0.014170893226191 	(obj:0)
_var3012_                           0.297402971438699 	(obj:0)
_var3038_                          0.0168601118990442 	(obj:0)
_var3051_                         0.00396768146964702 	(obj:0)
_var3054_                           0.132259299976399 	(obj:1)
_var3058_                          0.0484875949371861 	(obj:0)
_var3062_                          0.0166866243760159 	(obj:1)
_var3079_                          0.0021348911954337 	(obj:1)
_var3086_                           0.329370651420038 	(obj:0)
_var3089_                            0.24625069796616 	(obj:0)
_var3098_                          0.0697731606528036 	(obj:0)
_var3110_                          0.0846740343159561 	(obj:0)
_var3111_                           0.026498002165752 	(obj:0)
_var3112_                          0.0545617635530081 	(obj:0)
_var3126_                         0.000236178891767247 	(obj:0)
_var3131_                          0.0445208638873545 	(obj:0)
_var3151_                         0.00332227248131689 	(obj:1)
_var3154_                           0.105957799271328 	(obj:0)
_var3170_                          0.0744659608421948 	(obj:0)
_var3177_                          0.0610687003654212 	(obj:0)
_var3185_                          0.0201678263646188 	(obj:1)
_var3186_                            0.14846066598025 	(obj:0)
_var3187_                           0.150076335776846 	(obj:0)
_var3192_                          0.0385983620327643 	(obj:0)
_var3194_                           0.230169834458058 	(obj:0)
_var3195_                          0.0134332104417105 	(obj:0)
_var3199_                          0.0456658104104376 	(obj:0)
_var3202_                            0.18386613479487 	(obj:1)
_var3214_                          0.0774177075469673 	(obj:0)
_var3229_                          0.0408054081198477 	(obj:0)
_var3231_                          0.0949673537462245 	(obj:0)
_var3243_                           0.184860169646652 	(obj:0)
_var3247_                          0.0304739636928261 	(obj:0)
_var3248_                          0.0225328417273633 	(obj:0)
_var3252_                           0.210798754851259 	(obj:0)
_var3253_                           0.121250917486954 	(obj:1)
_var3259_                           0.104379980625775 	(obj:0)
_var3260_                           0.433465748086826 	(obj:0)
_var3263_                           0.178520984829669 	(obj:0)
_var3265_                           0.193892174307112 	(obj:0)
_var3270_                          0.0952062575754034 	(obj:1)
_var3273_                          0.0103061373282073 	(obj:0)
_var3275_                           0.253181368735086 	(obj:1)
_var3278_                            0.23781619049207 	(obj:0)
_var3279_                           0.176981951847902 	(obj:0)
_var3283_                           0.193125803914719 	(obj:1)
_var3284_                          0.0962816182623945 	(obj:0)
_var3285_                          0.0233271400179902 	(obj:0)
_var3287_                           0.171453779467048 	(obj:1)
_var3296_                          0.0245023376532127 	(obj:0)
_var3298_                            0.36750207839415 	(obj:0)
_var3308_                           0.219812166642739 	(obj:0)
_var3309_                          0.0323994312116836 	(obj:1)
_var3314_                          0.0631455037733964 	(obj:0)
_var3315_                           0.304108080018892 	(obj:0)
_var3316_                           0.329758685143427 	(obj:0)
_var3321_                           0.142245242420443 	(obj:1)
_var3327_                          0.0839235637675011 	(obj:0)
_var3330_                           0.208659326896637 	(obj:1)
_var3331_                         0.00709429602389105 	(obj:0)
_var3334_                           0.246519601681188 	(obj:1)
_var3339_                           0.282411059283109 	(obj:0)
_var3340_                          0.0637784012839996 	(obj:0)
_var3341_                          0.0539067530586528 	(obj:0)
_var3342_                           0.250631143696292 	(obj:0)
_var3346_                           0.214085877686325 	(obj:0)
_var3354_                           0.134116751214983 	(obj:0)
_var3356_                           0.202762174405886 	(obj:0)
_var3357_                          0.0102877596084769 	(obj:0)
_var3359_                          0.0883884217317486 	(obj:0)
_var3360_                          0.0011287971324736 	(obj:1)
_var3361_                           0.278187546900823 	(obj:0)
_var3365_                          0.0160646495156587 	(obj:0)
_var3366_                           0.159223418989019 	(obj:0)
_var3370_                          0.0429839017672783 	(obj:0)
_var3374_                          0.0601717081636102 	(obj:0)
_var3377_                           0.165005891408428 	(obj:1)
_var3382_                          0.0864099720104662 	(obj:0)
_var3384_                         0.00412752069930398 	(obj:0)
_var3386_                           0.156062056154488 	(obj:0)
_var3387_                           0.277735483075135 	(obj:0)
_var3390_                            0.10050435993871 	(obj:0)
_var3392_                           0.141933462681432 	(obj:0)
_var3394_                          0.0363695489946111 	(obj:1)
_var3396_                           0.121266190297216 	(obj:1)
_var3399_                           0.205155649117869 	(obj:0)
_var3403_                           0.190841846283519 	(obj:0)
_var3404_                           0.146422224194788 	(obj:0)
_var3406_                          0.0191211913892708 	(obj:1)
_var3407_                          0.0341517713457118 	(obj:0)
_var3408_                           0.417108679507681 	(obj:0)
_var3414_                          0.0482165644268998 	(obj:1)
_var3416_                           0.205953642737379 	(obj:0)
_var3417_                           0.112194456739361 	(obj:0)
_var3418_                          0.0205346561835678 	(obj:0)
_var3422_                           0.181100880768649 	(obj:0)
_var3425_                          0.0997383439180778 	(obj:0)
_var3426_                           0.133960847587871 	(obj:0)
_var3430_                           0.112602016101831 	(obj:0)
_var3431_                           0.488451936565192 	(obj:1)
_var3432_                         0.00626241464941241 	(obj:1)
_var3438_                          0.0469744281896725 	(obj:0)
_var3440_                           0.124064574049602 	(obj:1)
_var3443_                           0.224564348652471 	(obj:0)
_var3444_                           0.198447070324678 	(obj:0)
_var3447_                          0.0773680757532431 	(obj:0)
_var3452_                           0.195364103607549 	(obj:0)
_var3453_                           0.192463714130163 	(obj:1)
_var3454_                          0.0323532408434905 	(obj:0)
_var3455_                          0.0588802210506945 	(obj:0)
_var3456_                           0.090946726424672 	(obj:0)
_var3457_                         0.00694504845627559 	(obj:1)
_var3458_                           0.127459783864275 	(obj:0)
_var3461_                          0.0670977301462089 	(obj:0)
_var3463_                           0.027933555706923 	(obj:0)
_var3465_                          0.0114294308295151 	(obj:1)
_var3466_                           0.195415095873503 	(obj:0)
_var3467_                         0.000492899984550765 	(obj:0)
_var3470_                          0.0270191732212204 	(obj:1)
_var3472_                           0.285407754940658 	(obj:0)
_var3473_                           0.145222785302727 	(obj:0)
_var3474_                          0.0145809355298083 	(obj:1)
_var3475_                           0.104250185182058 	(obj:0)
_var3476_                          0.0842973947170947 	(obj:0)
_var3478_                           0.175623467458334 	(obj:0)
_var3479_                           0.130775573413529 	(obj:1)
_var3480_                           0.100197321195073 	(obj:0)
_var3483_                          0.0482165644268998 	(obj:0)
_var3487_                           0.189820783437391 	(obj:1)
_var3489_                          0.0484956861109803 	(obj:0)
_var3490_                         0.00432070816250604 	(obj:0)
_var3493_                          0.0361077347123734 	(obj:0)
_var3497_                             0.1422672219387 	(obj:0)
_var3498_                          0.0318394380814668 	(obj:0)
_var3503_                         0.00684319348547705 	(obj:0)
_var3504_                          0.0165152717087399 	(obj:1)
_var3505_                           0.122700699493426 	(obj:0)
_var3507_                           0.176521427416626 	(obj:0)
_var3508_                          0.0295267896339165 	(obj:1)
